
  32    4
  10   10   10   10

   0   0   0   0   0   2 2 31 
   5   1   1   1   0   1 3 
  10   2   0   6   1   2 30 4 
   8   1   1   6   0   1 5 
   4   0   4   2   2   1 6 
   2   5   6   1   0   1 7 
   9   4   0   5   3   1 8 
   8   0   6   5   5   1 9 
   8   3   4   0   2   1 10 
   4   4   4   3   0   1 11 
   8   5   4   0   4   2 29 12 
   6   4   0   3   6   1 13 
   2   5   7   3   0   1 14 
   7   3   3   0   5   1 15 
   4   5   0   4   5   1 16 
   8   3   0   6   4   1 17 
   4   5   0   3   4   1 18 
   2   9   0   2   3   1 19 
   9   3   0   7   3   1 20 
   3   3   6   5   0   1 21 
   2   0   6   2   5   1 22 
   7   4   1   5   0   1 23 
   9   4   0   5   4   1 24 
   7   4   1   5   0   1 25 
  10   5   0   5   5   1 26 
   5   0   4   2   2   1 27 
   8   6   4   0   3   1 28 
   6   5   6   0   6   1 32
   8   4   4   0   7   1 32
  10   3   0   7   5   1 32
   6   4   0   3   4   1 32
   0   0   0   0   0   0 
